NAME: sphere_cap_reg_nol_10x1
COMMENT: type = spherical_cap, neigh_ang = 0.0872664625997, neigh_size = 10
COMMENT: sphere_limit = 1.0471975512, rect_limit = [-1.0471975512, 0.785398163397, -0.785398163397, 1.0471975512]
TYPE: GTSP
DIMENSION: 10
GTSP_SETS: 10
EDGE_WEIGHT_TYPE: GEOM
NODE_COORD_SECTION:
1 -36.2927022752 45.2777539752
2 48.6917696247 37.2477808958
3 -3.8315225254 26.574969519
4 -56.3548146755 16.8264488927
5 28.6296572244 10.6151078507
6 -23.8936349257 1.50795775424
7 8.56754482411 -13.7002334884
8 -43.955747326 -23.2495625906
9 41.0287245739 -30.0
10 -11.4945675762 -41.1395104149
GTSP_SET_SECTION:
1 1 -1
2 2 -1
3 3 -1
4 4 -1
5 5 -1
6 6 -1
7 7 -1
8 8 -1
9 9 -1
10 10 -1
EOF